
# param
include         seed.txt
variable        ny      equal  ${nx}/2
variable        iniv    equal  $T
variable        binx    equal  16
variable        biny    equal  ${binx}/2


# schedule
variable        Nev     equal  100000
variable        Nre     equal  1
variable        Nfr     equal  ${Nev}*${Nre}
variable        Ndump   equal  1000000
variable        Nrst    equal  100000
variable        run     equal  100000/${dtime}

# basic
dimension       2
boundary        p p p
processors      * * 1
atom_style	atomic
lattice		hex ${rho}   origin 0 0 0


# create or read
shell           ./lmp_configure.sh
include		lmp_temp
shell           rm lmp_temp
variable	file1 string md_scalars.txt
variable	file2 string md_snaps.txt
variable	file3 string md_vectors.txt


# setup
fix		1 all nvt    temp  ${T} ${T} ${tdamp}
timestep        ${dtime}
thermo_style    custom step temp press pe ke etotal enthalpy
thermo          10000


# runtime
compute         1  all   hexorder/atom   degree 6 nnn NULL cutoff $(1.5*xlat)
compute         2  all   reduce  ave     c_1[1] c_1[2]
compute         3  all   chunk/atom      bin/2d     x 0 ${binx} y 0 ${biny}    nchunk once    ids every 
fix             2  all   ave/chunk       ${Nev} ${Nre} ${Nfr}     3      density/number vx vy fx fy c_1[1] c_1[2]       norm sample     ave one    file ${file2}
fix             3  all   print 1000     " $(step) $(pe) $(press) $(c_2[1]) $(c_2[2]) "    append  ${file1}       screen no
fix             4  all   enforce2d
dump            1  all   custom  ${Ndump}  ${file3}      id x y vx vy 


# restart plan
restart         ${Nrst}   md_restart md_restart_alt 

#
print		'output file 1 = ${file1}'
print		'output file 2 = ${file2}'
print		'output file 3 = ${file3}'
print           'xlat $(xlat)  hexrc  $(1.5*xlat)' file "md_notes.txt"

run 		${run} # upto

