

dimension       2
boundary        p p p
atom_style	atomic
lattice		hex ${rho}   origin 0 0 0
region		box block    0.0 ${nx}     0.0 ${ny}     -0.01 0.01
create_box	1 box
create_atoms	1 box
mass            1 1.0
pair_style	lj/cut ${cutoff}
pair_modify     shift yes
pair_coeff	1 1 1.0 1.0
velocity	all   create ${iniv} 25424245  dist  gaussian
velocity        all   zero angular
velocity        all   zero linear
